n_res = 4;
rc = [ 48, 47, 56, 53 ];
n_tasks = 120;
d = [ 2, 7, 1, 6, 10, 9, 10, 8, 3, 7, 6, 9, 1, 2, 10, 10, 8, 8, 2, 3, 1, 8, 9, 5, 7, 4, 4, 5, 7, 10, 9, 4, 6, 6, 7, 9, 10, 9, 2, 5, 4, 5, 3, 4, 6, 4, 3, 3, 7, 5, 7, 4, 5, 2, 5, 2, 5, 4, 6, 4, 2, 9, 10, 1, 5, 8, 3, 1, 4, 9, 6, 6, 6, 7, 4, 8, 1, 1, 2, 9, 7, 9, 5, 3, 1, 8, 3, 3, 2, 9, 8, 8, 3, 3, 6, 9, 7, 5, 9, 2, 8, 2, 5, 6, 5, 9, 9, 10, 10, 9, 2, 6, 9, 9, 10, 2, 5, 1, 8, 3 ];
rr = [| 3, 10, 1, 10, 10, 2, 1, 8, 3, 2, 2, 10, 9, 4, 5, 5, 1, 1, 8, 3, 10, 6, 5, 9, 8, 3, 2, 2, 4, 8, 4, 8, 1, 6, 8, 6, 8, 2, 3, 9, 4, 6, 6, 7, 4, 5, 7, 8, 1, 10, 2, 1, 10, 2, 3, 1, 4, 7, 5, 1, 3, 2, 3, 2, 8, 3, 2, 7, 8, 9, 9, 9, 8, 9, 8, 7, 3, 3, 4, 1, 6, 10, 1, 5, 10, 9, 4, 8, 6, 4, 6, 5, 6, 1, 4, 9, 1, 7, 10, 4, 1, 10, 3, 2, 3, 7, 7, 8, 4, 7, 4, 6, 3, 3, 7, 3, 10, 2, 6, 1
      | 3, 1, 8, 1, 3, 1, 7, 6, 5, 5, 9, 2, 4, 4, 7, 1, 10, 6, 3, 9, 1, 9, 9, 1, 9, 7, 1, 1, 10, 5, 10, 6, 9, 2, 2, 9, 7, 3, 4, 1, 3, 8, 6, 5, 3, 3, 2, 1, 8, 5, 9, 2, 2, 8, 6, 4, 10, 2, 5, 3, 7, 7, 3, 5, 2, 9, 10, 2, 8, 3, 6, 8, 6, 9, 8, 3, 8, 4, 10, 7, 2, 8, 6, 9, 2, 10, 6, 10, 8, 4, 1, 6, 1, 3, 8, 1, 9, 8, 5, 1, 10, 4, 7, 9, 10, 10, 5, 2, 10, 8, 9, 1, 10, 2, 10, 8, 3, 2, 5, 2
      | 2, 4, 3, 6, 3, 7, 1, 9, 6, 8, 2, 9, 8, 10, 3, 6, 10, 9, 2, 4, 1, 1, 6, 6, 7, 7, 7, 3, 7, 6, 5, 10, 2, 1, 4, 9, 6, 9, 7, 10, 2, 8, 9, 8, 9, 2, 10, 5, 7, 3, 7, 8, 9, 9, 6, 10, 8, 3, 2, 6, 3, 6, 9, 2, 5, 2, 9, 3, 7, 1, 2, 7, 7, 6, 1, 3, 6, 3, 9, 3, 10, 3, 7, 4, 7, 4, 10, 7, 8, 6, 6, 10, 4, 7, 7, 1, 7, 10, 4, 3, 6, 7, 8, 7, 6, 3, 1, 8, 4, 4, 5, 1, 8, 3, 6, 5, 3, 5, 1, 7
      | 3, 5, 2, 9, 9, 7, 6, 6, 7, 7, 1, 8, 6, 4, 8, 3, 5, 5, 10, 6, 2, 5, 1, 3, 9, 7, 3, 9, 7, 2, 5, 7, 2, 5, 1, 10, 7, 7, 10, 9, 7, 6, 3, 2, 2, 10, 3, 9, 9, 2, 6, 9, 6, 4, 7, 3, 3, 3, 3, 3, 9, 4, 1, 1, 5, 10, 4, 6, 7, 4, 3, 7, 6, 1, 6, 6, 8, 2, 6, 1, 9, 1, 4, 1, 5, 4, 7, 1, 5, 4, 2, 8, 8, 2, 2, 10, 2, 1, 7, 1, 2, 1, 2, 6, 10, 10, 2, 7, 10, 4, 8, 6, 8, 9, 9, 5, 8, 9, 3, 3 |];
suc = [ { 7, 9, 11 },
       { 6, 14, 25 },
       { 4, 5, 8 },
       { 13 },
       { 21 },
       { 117 },
       { 10, 15, 19 },
       { 17, 20, 36 },
       { 18, 40, 47 },
       { 12 },
       { 16, 46 },
       { 58 },
       { 23, 64 },
       { 22, 55 },
       { 29, 32, 44 },
       { 39 },
       { 27, 35, 38 },
       { 37, 66 },
       { 24 },
       { 49, 81, 92 },
       { 28, 57, 91 },
       { 26, 30, 112 },
       { 31, 41 },
       { 101 },
       { 84, 114 },
       { 34 },
       { 53, 116 },
       { 73, 80, 90 },
       { 33, 56, 113 },
       { 50, 88 },
       { 48 },
       { 84 },
       { 51 },
       { 103 },
       { 42 },
       { 60, 63 },
       { 61 },
       { 52, 99 },
       { 54, 65 },
       { 45 },
       { 43, 63 },
       { 75 },
       { 68, 72 },
       { 57, 68 },
       { 91 },
       { 95, 97 },
       { 68 },
       { 59, 76 },
       { 60 },
       { 65 },
       { 96 },
       { 71, 85, 100 },
       { 74, 94 },
       { 72 },
       { 70, 89 },
       { 111 },
       { 67, 70 },
       { 82 },
       { 83 },
       { 71 },
       { 62 },
       { 90 },
       { 69 },
       { 79 },
       { 84, 94 },
       { 69, 87 },
       { 111 },
       { 105 },
       { 108 },
       { 78, 104, 119 },
       { 86 },
       { 81 },
       { 77 },
       { 100 },
       { 100, 106, 111 },
       { 109 },
       { 114 },
       { 107 },
       { 93, 102 },
       { 93 },
       { 82, 88 },
       { 98 },
       { 101 },
       { 105 },
       { 108 },
       { 95 },
       { 109 },
       { 89, 97 },
       { 96 },
       { 101 },
       { 93 },
       { 108 },
       { 120 },
       { 115 },
       { 106 },
       { 98, 109, 115 },
       { 110 },
       { 118 },
       { 110 },
       { 105 },
       { 102 },
       { 103, 107 },
       { 115 },
       { 110 },
       { 120 },
       { 107 },
       { 112 },
       { 112 },
       { 114 },
       { 117 },
       { 116, 118 },
       { 118 },
       { 117 },
       { 116 },
       { 119 },
       { 119 },
       { 120 },
       {  },
       {  },
       {  } ];
